W=5;
H=5;

MAX_TIME=12;
MAX_TRACKS=12;

TARGET=(5,5);

TRAINS=[(1,1,DOWN),(1,3,DOWN)];

INIT_POS=[
(1,1,STRAIGHT_TD),
(1,3,STRAIGHT_TD),
(3,1,EMPTY),
(3,2,EMPTY),
(3,3,STRAIGHT_TD),
(4,3,STRAIGHT_TD),
(5,3,DSWITCH_L_R_T),
(5,5,STRAIGHT_RL),
];
TUNNEL_PAIRS=[];

GATES=[];
ACTIVATIONS=[
(3,3,1),
];

DSWITCHES=[
(5,3,1),
];
STATIONS=[];
